g3 1 1 0	# problem unknown
 2 0 14 0 0 	# vars, constraints, objectives, ranges, eqns
 0 13 0 0 0 0	# nonlinear constrs, objs; ccons: lin, nonlin, nd, nzlb
 0 0	# network constraints: nonlinear, linear
 0 2 0 	# nonlinear vars in constraints, objectives, both
 0 0 0 1	# linear network variables; functions; arith, flags
 0 0 0 0 0 	# discrete variables: binary, integer, nonlinear (b,c,o)
 0 20 	# nonzeros in Jacobian, obj. gradient
 0 0	# max name lengths: constraints, variables
 0 0 0 0 0	# common exprs: b,c,o,c1,o1
O0 0
o0
o54
4
o43
v0
o2
n3.0
o43
v1
o2
n9.3575
o43
o0
o16
o44
o2
n-1.34113088966911
v1
n1
o2
n10.717
o43
o0
o16
o44
o2
n-5.15538034001459
v1
n1
n-12.5586602313194
O1 0
o5
v0
n-1.0
O2 0
o16
o5
v0
n-2.0
O3 0
o0
o54
3
o2
n3.0
o5
v1
n-1.0
o2
o2
n55.250211103936365
o5
o0
o16
o44
o2
n-5.15538034001459
v1
n1.0
n-1.0
o44
o2
n-5.15538034001459
v1
o2
o2
n12.549632300078697
o5
o0
o16
o44
o2
n-1.34113088966911
v1
n1.0
n-1.0
o44
o2
n-1.34113088966911
v1
n8.79132625741231
O4 0
o54
5
o2
n-3.0
o5
v1
n-2.0
o2
o2
n-284.8358521068893
o5
o0
o16
o44
o2
n-5.15538034001459
v1
n1.0
n-1.0
o44
o2
n-5.15538034001459
v1
o2
o2
n-284.8358521068893
o5
o0
o16
o44
o2
n-5.15538034001459
v1
n1.0
n-2.0
o44
o2
n-10.31076068002918
v1
o2
o2
n-16.83069953162474
o5
o0
o16
o44
o2
n-1.34113088966911
v1
n1.0
n-1.0
o44
o2
n-1.34113088966911
v1
o2
o2
n-16.83069953162474
o5
o0
o16
o44
o2
n-1.34113088966911
v1
n1.0
n-2.0
o44
o2
n-2.68226177933822
v1
O5 0
o54
16
o2
o2
n0.03982797
o5
v0
n4.0
v1
o2
o2
n1.812227
v0
o5
v1
n0.223
o2
o2
n-2.537512
v0
o5
v1
n0.755
o2
o2
n-0.5333254
o5
v0
n2.0
o5
v1
n1.24
o2
o2
n0.1677031
o5
v0
n3.0
o5
v1
n0.44
o2
o2
o2
n-1.323801
v0
o5
v1
n2.0
o44
o16
o5
v0
n2.0
o2
o2
o2
n-0.6694654
o5
v0
n3.0
o5
v1
n2.2
o44
o16
o5
v0
n2.0
o2
o2
o2
n0.8072718
o5
v0
n2.0
o5
v1
n1.2
o44
o2
n-1
v0
o2
o2
o2
n-0.7740229
o5
v0
n2.0
o5
v1
n1.5
o44
o16
o5
v0
n2.0
o2
o2
o2
n-0.01843846
o5
v0
n7.0
o5
v1
n0.9
o44
o2
n-1
v0
o2
o2
o2
n1.407916
v0
o5
v1
n1.33
o44
o0
o16
o5
o0
v0
n-0.728
n2
o2
n-1.21
o5
o0
v1
n-0.943
n2
o2
o2
o2
n-0.4237082
v0
o5
v1
n1.75
o44
o0
o2
n-1.61
o5
o0
v0
n-0.87
n2
o2
n-1.37
o5
o0
v1
n-0.642
n2
o2
o2
o2
n-0.2270068
o5
v0
n3
o5
v1
n2.11
o44
o0
o2
n-1.24
o5
o0
v0
n-0.855
n2
o2
n-0.98
o5
o0
v1
n-0.59
n2
o2
o2
o2
n-0.805213
o5
v0
n3
v1
o44
o0
o2
n-9.34
o5
o0
v0
n-0.79
n2
o2
n-171
o5
o0
v1
n-1.2
n2
o2
o2
o2
n0.00994318
o5
v0
n2
o5
v1
n1.5
o44
o0
o2
n-5.78
o5
o0
v0
n-1.3
n2
o2
n-47.4
o5
o0
v1
n-1.33
n2
o2
o2
o2
n-0.008798793
v0
v1
o44
o0
o2
n-3.08
o5
o0
v0
n-0.71
n2
o2
n-15.4
o5
o0
v1
n-0.64
n2
O6 0
o54
27
o2
n1.812227
o5
v1
n0.223
o2
n-2.537512
o5
v1
n0.755
o2
o2
n0.5031093
o5
v0
n2.0
o5
v1
n0.44
o2
o2
n0.15931188
v1
o5
v0
n3.0
o2
o2
n1.407916
o5
v1
n1.33
o44
o0
o16
o5
o0
v0
n-0.728
n2.0
o2
n-1.21
o5
o0
v1
n-0.943
n2.0
o2
o2
n-0.008798793
v1
o44
o0
o2
n-3.08
o5
o0
v0
n-0.71
n2.0
o2
n-15.4
o5
o0
v1
n-0.64
n2.0
o2
o2
n-1.323801
o5
v1
n2.0
o44
o16
o5
v0
n2.0
o2
o2
n-0.4237082
o5
v1
n1.75
o44
o0
o2
n-1.37
o5
o0
v1
n-0.642
n2.0
o2
n-1.61
o5
o0
v0
n-0.87
n2.0
o2
o2
n-1.0666508
v0
o5
v1
n1.24
o2
o2
o2
n1.3389308
o5
v0
n4.0
o5
v1
n2.2
o44
o16
o5
v0
n2.0
o2
o2
o2
n0.01988636
v0
o5
v1
n1.5
o44
o0
o2
n-5.78
o5
o0
v0
n-1.3
n2.0
o2
n-47.4
o5
o0
v1
n-1.33
n2.0
o2
o2
o2
n2.647602
o5
v0
n2.0
o5
v1
n2.0
o44
o16
o5
v0
n2.0
o2
o2
o2
n0.01843846
o5
v0
n7.0
o5
v1
n0.9
o44
o2
n-1.0
v0
o2
o2
o2
n1.5480458
o5
v0
n3.0
o5
v1
n1.5
o44
o16
o5
v0
n2.0
o2
o2
o2
n1.6145436
v0
o5
v1
n1.2
o44
o2
n-1.0
v0
o2
o2
o2
n-2.0083962
o5
v0
n2.0
o5
v1
n2.2
o44
o16
o5
v0
n2.0
o2
o2
o2
n-0.6810204
o5
v0
n2.0
o5
v1
n2.11
o44
o0
o2
n-0.98
o5
o0
v1
n-0.59
n2.0
o2
n-1.24
o5
o0
v0
n-0.855
n2.0
o2
o2
o2
n-2.4156389999999996
v1
o5
v0
n2.0
o44
o0
o2
n-171.0
o5
o0
v1
n-1.2
n2.0
o2
n-9.34
o5
o0
v0
n-0.79
n2.0
o2
o2
o2
n-0.12906922
o5
v0
n6.0
o5
v1
n0.9
o44
o2
n-1.0
v0
o2
o2
o2
n-1.5480458
v0
o5
v1
n1.5
o44
o16
o5
v0
n2.0
o2
o2
o2
n-0.8072718
o5
v0
n2.0
o5
v1
n1.2
o44
o2
n-1.0
v0
o2
o2
o2
o2
n0.00994318
o5
v0
n2.0
o5
v1
n1.5
o0
o2
n-11.56
v0
n15.028
o44
o0
o2
n-5.78
o5
o0
v0
n-1.3
n2.0
o2
n-47.4
o5
o0
v1
n-1.33
n2.0
o2
o2
o2
o2
n1.407916
v0
o5
v1
n1.33
o0
o2
n-2.0
v0
n1.456
o44
o0
o16
o5
o0
v0
n-0.728
n2.0
o2
n-1.21
o5
o0
v1
n-0.943
n2.0
o2
o2
o2
o2
n-0.008798793
v0
v1
o0
o2
n-6.16
v0
n4.3736
o44
o0
o2
n-3.08
o5
o0
v0
n-0.71
n2.0
o2
n-15.4
o5
o0
v1
n-0.64
n2.0
o2
o2
o2
o2
n-0.805213
v1
o5
v0
n3.0
o0
o2
n-18.68
v0
n14.757200000000001
o44
o0
o2
n-171.0
o5
o0
v1
n-1.2
n2.0
o2
n-9.34
o5
o0
v0
n-0.79
n2.0
o2
o2
o2
o2
n-0.4237082
v0
o5
v1
n1.75
o0
o2
n-3.22
v0
n2.8014
o44
o0
o2
n-1.37
o5
o0
v1
n-0.642
n2.0
o2
n-1.61
o5
o0
v0
n-0.87
n2.0
o2
o2
o2
o2
n-0.2270068
o5
v0
n3.0
o5
v1
n2.11
o0
o2
n-2.48
v0
n2.1204
o44
o0
o2
n-0.98
o5
o0
v1
n-0.59
n2.0
o2
n-1.24
o5
o0
v0
n-0.855
n2.0
O7 0
o54
45
o2
n-1.0666508
o5
v1
n1.24
o2
o2
n1.0062186
o5
v1
n0.44
v0
o2
o2
n0.01988636
o5
v1
n1.5
o44
o0
o2
n-5.78
o5
o0
v0
n-1.3
n2.0
o2
n-47.4
o5
o0
v1
n-1.33
n2.0
o2
o2
n0.47793564
v1
o5
v0
n2.0
o2
o2
n1.6145436
o5
v1
n1.2
o44
o2
n-1.0
v0
o2
o2
n-1.5480458
o5
v1
n1.5
o44
o16
o5
v0
n2.0
o2
o2
o2
n7.740228999999999
o5
v1
n1.5
o5
v0
n2.0
o44
o16
o5
v0
n2.0
o2
o2
o2
n1.364340404
v0
o5
v1
n1.75
o44
o0
o2
n-1.37
o5
o0
v1
n-0.642
n2.0
o2
n-1.61
o5
o0
v0
n-0.87
n2.0
o2
o2
o2
n1.364340404
o5
v1
n1.75
o0
v0
n-0.87
o44
o0
o2
n-1.37
o5
o0
v1
n-0.642
n2.0
o2
n-1.61
o5
o0
v0
n-0.87
n2.0
o2
o2
o2
n9.3725156
o5
v1
n2.2
o5
v0
n3.0
o44
o16
o5
v0
n2.0
o2
o2
o2
n0.054200564879999996
v1
v0
o44
o0
o2
n-3.08
o5
o0
v0
n-0.71
n2.0
o2
n-15.4
o5
o0
v1
n-0.64
n2.0
o2
o2
o2
n0.054200564879999996
v1
o0
v0
n-0.71
o44
o0
o2
n-3.08
o5
o0
v0
n-0.71
n2.0
o2
n-15.4
o5
o0
v1
n-0.64
n2.0
o2
o2
o2
n0.25813844
o5
v1
n0.9
o5
v0
n6.0
o44
o2
n-1.0
v0
o2
o2
o2
n0.562976864
o5
v1
n2.11
o5
v0
n3.0
o44
o0
o2
n-0.98
o5
o0
v1
n-0.59
n2.0
o2
n-1.24
o5
o0
v0
n-0.855
n2.0
o2
o2
o2
n1.407916
o5
v1
n1.33
o0
o2
n-2.0
v0
n1.456
o44
o0
o16
o5
o0
v0
n-0.728
n2.0
o2
n-1.21
o5
o0
v1
n-0.943
n2.0
o2
o2
o2
n0.8072718
o5
v1
n1.2
o5
v0
n2.0
o44
o2
n-1.0
v0
o2
o2
o2
n15.041378839999998
v1
o5
v0
n3.0
o44
o0
o2
n-171.0
o5
o0
v1
n-1.2
n2.0
o2
n-9.34
o5
o0
v0
n-0.79
n2.0
o2
o2
o2
n7.942806
o5
v1
n2.0
v0
o44
o16
o5
v0
n2.0
o2
o2
o2
n-2.6778616
o5
v1
n2.2
o5
v0
n5.0
o44
o16
o5
v0
n2.0
o2
o2
o2
n-4.0167924
o5
v1
n2.2
v0
o44
o16
o5
v0
n2.0
o2
o2
o2
n-0.008798793
v1
o0
o2
n-6.16
v0
n4.3736
o44
o0
o2
n-3.08
o5
o0
v0
n-0.71
n2.0
o2
n-15.4
o5
o0
v1
n-0.64
n2.0
o2
o2
o2
n-0.1149431608
o5
v1
n1.5
o5
v0
n2.0
o44
o0
o2
n-5.78
o5
o0
v0
n-1.3
n2.0
o2
n-47.4
o5
o0
v1
n-1.33
n2.0
o2
o2
o2
n-0.7744153200000001
o5
v1
n0.9
o5
v0
n5.0
o44
o2
n-1.0
v0
o2
o2
o2
n-1.3620408
o5
v1
n2.11
v0
o44
o0
o2
n-0.98
o5
o0
v1
n-0.59
n2.0
o2
n-1.24
o5
o0
v0
n-0.855
n2.0
o2
o2
o2
n-4.831277999999999
v1
v0
o44
o0
o2
n-171.0
o5
o0
v1
n-1.2
n2.0
o2
n-9.34
o5
o0
v0
n-0.79
n2.0
o2
o2
o2
n-5.295204
o5
v1
n2.0
o5
v0
n3.0
o44
o16
o5
v0
n2.0
o2
o2
o2
n-0.4237082
o5
v1
n1.75
o0
o2
n-3.22
v0
n2.8014
o44
o0
o2
n-1.37
o5
o0
v1
n-0.642
n2.0
o2
n-1.61
o5
o0
v0
n-0.87
n2.0
o2
o2
o2
n-0.01843846
o5
v1
n0.9
o5
v0
n7.0
o44
o2
n-1.0
v0
o2
o2
o2
n-2.815832
v0
o5
v1
n1.33
o44
o0
o16
o5
o0
v0
n-0.728
n2.0
o2
n-1.21
o5
o0
v1
n-0.943
n2.0
o2
o2
o2
n-2.815832
o5
v1
n1.33
o0
v0
n-0.728
o44
o0
o16
o5
o0
v0
n-0.728
n2.0
o2
n-1.21
o5
o0
v1
n-0.943
n2.0
o2
o2
o2
n-3.0960916
o5
v1
n1.5
o5
v0
n4.0
o44
o16
o5
v0
n2.0
o2
o2
o2
n-1.6145436
v0
o5
v1
n1.2
o44
o2
n-1.0
v0
o2
o2
o2
n-1.6145436
o5
v1
n1.2
v0
o44
o2
n-1.0
v0
o2
o2
o2
o2
n0.01988636
o5
v1
n1.5
v0
o0
o2
n-11.56
v0
n15.028
o44
o0
o2
n-5.78
o5
o0
v0
n-1.3
n2.0
o2
n-47.4
o5
o0
v1
n-1.33
n2.0
o2
o2
o2
o2
n45.12413651999999
v1
o5
v0
n2.0
o0
v0
n-0.79
o44
o0
o2
n-171.0
o5
o0
v1
n-1.2
n2.0
o2
n-9.34
o5
o0
v0
n-0.79
n2.0
o2
o2
o2
o2
n1.688930592
o5
v1
n2.11
o5
v0
n2.0
o0
v0
n-0.855
o44
o0
o2
n-0.98
o5
o0
v1
n-0.59
n2.0
o2
n-1.24
o5
o0
v0
n-0.855
n2.0
o2
o2
o2
o2
n-0.2298863216
v0
o5
v1
n1.5
o0
v0
n-1.3
o44
o0
o2
n-5.78
o5
o0
v0
n-1.3
n2.0
o2
n-47.4
o5
o0
v1
n-1.33
n2.0
o2
o2
o2
o2
n-0.6810204
o5
v1
n2.11
o5
v0
n2.0
o0
o2
n-2.48
v0
n2.1204
o44
o0
o2
n-0.98
o5
o0
v1
n-0.59
n2.0
o2
n-1.24
o5
o0
v0
n-0.855
n2.0
o2
o2
o2
o2
n-2.4156389999999996
v1
o5
v0
n2.0
o0
o2
n-18.68
v0
n14.757200000000001
o44
o0
o2
n-171.0
o5
o0
v1
n-1.2
n2.0
o2
n-9.34
o5
o0
v0
n-0.79
n2.0
o2
o2
o2
o2
o2
n1.364340404
v0
o5
v1
n1.75
o0
v0
n-0.87
o0
o2
n-3.22
v0
n2.8014
o44
o0
o2
n-1.37
o5
o0
v1
n-0.642
n2.0
o2
n-1.61
o5
o0
v0
n-0.87
n2.0
o2
o2
o2
o2
o2
n0.054200564879999996
v1
v0
o0
v0
n-0.71
o0
o2
n-6.16
v0
n4.3736
o44
o0
o2
n-3.08
o5
o0
v0
n-0.71
n2.0
o2
n-15.4
o5
o0
v1
n-0.64
n2.0
o2
o2
o2
o2
o2
n0.562976864
o5
v1
n2.11
o5
v0
n3.0
o0
v0
n-0.855
o0
o2
n-2.48
v0
n2.1204
o44
o0
o2
n-0.98
o5
o0
v1
n-0.59
n2.0
o2
n-1.24
o5
o0
v0
n-0.855
n2.0
o2
o2
o2
o2
o2
n15.041378839999998
v1
o5
v0
n3.0
o0
v0
n-0.79
o0
o2
n-18.68
v0
n14.757200000000001
o44
o0
o2
n-171.0
o5
o0
v1
n-1.2
n2.0
o2
n-9.34
o5
o0
v0
n-0.79
n2.0
o2
o2
o2
o2
o2
n-0.1149431608
o5
v1
n1.5
o5
v0
n2.0
o0
v0
n-1.3
o0
o2
n-11.56
v0
n15.028
o44
o0
o2
n-5.78
o5
o0
v0
n-1.3
n2.0
o2
n-47.4
o5
o0
v1
n-1.33
n2.0
o2
o2
o2
o2
o2
n-2.815832
v0
o5
v1
n1.33
o0
v0
n-0.728
o0
o2
n-2.0
v0
n1.456
o44
o0
o16
o5
o0
v0
n-0.728
n2.0
o2
n-1.21
o5
o0
v1
n-0.943
n2.0
O8 0
o54
22
o2
n0.03982797
o5
v0
n4.0
o2
o2
n0.073789364
o5
v0
n3.0
o5
v1
n-0.56
o2
o2
n0.404126621
v0
o5
v1
n-0.777
o2
o2
n-0.008798793
v0
o44
o0
o2
n-3.08
o5
o0
v0
n-0.71
n2.0
o2
n-15.4
o5
o0
v1
n-0.64
n2.0
o2
o2
n-0.805213
o5
v0
n3.0
o44
o0
o2
n-171.0
o5
o0
v1
n-1.2
n2.0
o2
n-9.34
o5
o0
v0
n-0.79
n2.0
o2
o2
n-1.91582156
v0
o5
v1
n-0.245
o2
o2
n-0.661323496
o5
v0
n2.0
o5
v1
n0.24
o2
o2
o2
n1.87252828
v0
o5
v1
n0.33000000000000007
o44
o0
o16
o5
o0
v0
n-0.728
n2.0
o2
n-1.21
o5
o0
v1
n-0.943
n2.0
o2
o2
o2
n0.9687261599999999
o5
v0
n2.0
o5
v1
n0.19999999999999996
o44
o2
n-1.0
v0
o2
o2
o2
n0.014914769999999999
o5
v0
n2.0
o5
v1
n0.5
o44
o0
o2
n-5.78
o5
o0
v0
n-1.3
n2.0
o2
n-47.4
o5
o0
v1
n-1.33
n2.0
o2
o2
o2
n-0.478984348
o5
v0
n3.0
o5
v1
n1.1099999999999999
o44
o0
o2
n-0.98
o5
o0
v1
n-0.59
n2.0
o2
n-1.24
o5
o0
v0
n-0.855
n2.0
o2
o2
o2
n-0.016594614
o5
v0
n7.0
o5
v1
n-0.09999999999999998
o44
o2
n-1.0
v0
o2
o2
o2
n-1.16103435
o5
v0
n2.0
o5
v1
n0.5
o44
o16
o5
v0
n2.0
o2
o2
o2
n-2.647602
v0
v1
o44
o16
o5
v0
n2.0
o2
o2
o2
n-0.7414893499999999
v0
o5
v1
n0.75
o44
o0
o2
n-1.37
o5
o0
v1
n-0.642
n2.0
o2
n-1.61
o5
o0
v0
n-0.87
n2.0
o2
o2
o2
n-1.4728238800000002
o5
v0
n3.0
o5
v1
n1.2000000000000002
o44
o16
o5
v0
n2.0
o2
o2
o2
o2
n0.00994318
o5
v0
n2.0
o5
v1
n1.5
o0
o2
n-94.8
v1
n126.084
o44
o0
o2
n-5.78
o5
o0
v0
n-1.3
n2.0
o2
n-47.4
o5
o0
v1
n-1.33
n2.0
o2
o2
o2
o2
n1.407916
v0
o5
v1
n1.33
o0
o2
n-2.42
v1
n2.28206
o44
o0
o16
o5
o0
v0
n-0.728
n2.0
o2
n-1.21
o5
o0
v1
n-0.943
n2.0
o2
o2
o2
o2
n-0.008798793
v0
v1
o0
o2
n-30.8
v1
n19.712
o44
o0
o2
n-3.08
o5
o0
v0
n-0.71
n2.0
o2
n-15.4
o5
o0
v1
n-0.64
n2.0
o2
o2
o2
o2
n-0.805213
v1
o5
v0
n3.0
o0
o2
n-342.0
v1
n410.4
o44
o0
o2
n-171.0
o5
o0
v1
n-1.2
n2.0
o2
n-9.34
o5
o0
v0
n-0.79
n2.0
o2
o2
o2
o2
n-0.4237082
v0
o5
v1
n1.75
o0
o2
n-2.74
v1
n1.7590800000000002
o44
o0
o2
n-1.37
o5
o0
v1
n-0.642
n2.0
o2
n-1.61
o5
o0
v0
n-0.87
n2.0
o2
o2
o2
o2
n-0.2270068
o5
v0
n3.0
o5
v1
n2.11
o0
o2
n-1.96
v1
n1.1563999999999999
o44
o0
o2
n-0.98
o5
o0
v1
n-0.59
n2.0
o2
n-1.24
o5
o0
v0
n-0.855
n2.0
O9 0
o54
37
o2
o2
n0.4693762822
v0
o5
v1
n-1.245
o2
o2
n-0.314006384517
v0
o5
v1
n-1.7770000000000001
o2
o2
n-0.04132204384
o5
v0
n3.0
o5
v1
n-1.56
o2
o2
n-2.647602
v0
o44
o16
o5
v0
n2.0
o2
o2
n-0.15871763904
o5
v0
n2.0
o5
v1
n-0.76
o2
o2
o2
n0.2710028244
v0
v1
o44
o0
o2
n-3.08
o5
o0
v0
n-0.71
n2.0
o2
n-15.4
o5
o0
v1
n-0.64
n2.0
o2
o2
o2
n0.2710028244
v0
o0
v1
n-0.64
o44
o0
o2
n-3.08
o5
o0
v0
n-0.71
n2.0
o2
n-15.4
o5
o0
v1
n-0.64
n2.0
o2
o2
o2
n0.19374523199999993
o5
v0
n2.0
o5
v1
n-0.8
o44
o2
n-1.0
v0
o2
o2
o2
n275.382846
v1
o5
v0
n3.0
o44
o0
o2
n-171.0
o5
o0
v1
n-1.2
n2.0
o2
n-9.34
o5
o0
v0
n-0.79
n2.0
o2
o2
o2
n275.382846
o5
v0
n3.0
o0
v1
n-1.2
o44
o0
o2
n-171.0
o5
o0
v1
n-1.2
n2.0
o2
n-9.34
o5
o0
v0
n-0.79
n2.0
o2
o2
o2
n0.6179343324000002
v0
o5
v1
n-0.6699999999999999
o44
o0
o16
o5
o0
v0
n-0.728
n2.0
o2
n-1.21
o5
o0
v1
n-0.943
n2.0
o2
o2
o2
n0.0016594613999999998
o5
v0
n7.0
o5
v1
n-1.1
o44
o2
n-1.0
v0
o2
o2
o2
n1.160960468
v0
o5
v1
n1.75
o44
o0
o2
n-1.37
o5
o0
v1
n-0.642
n2.0
o2
n-1.61
o5
o0
v0
n-0.87
n2.0
o2
o2
o2
n0.444933328
o5
v0
n3.0
o5
v1
n2.11
o44
o0
o2
n-0.98
o5
o0
v1
n-0.59
n2.0
o2
n-1.24
o5
o0
v0
n-0.855
n2.0
o2
o2
o2
n0.0074573849999999995
o5
v0
n2.0
o5
v1
n-0.5
o44
o0
o2
n-5.78
o5
o0
v0
n-1.3
n2.0
o2
n-47.4
o5
o0
v1
n-1.33
n2.0
o2
o2
o2
n-0.008798793
v0
o0
o2
n-30.8
v1
n19.712
o44
o0
o2
n-3.08
o5
o0
v0
n-0.71
n2.0
o2
n-15.4
o5
o0
v1
n-0.64
n2.0
o2
o2
o2
n-3.4071567199999997
v0
o5
v1
n1.33
o44
o0
o16
o5
o0
v0
n-0.728
n2.0
o2
n-1.21
o5
o0
v1
n-0.943
n2.0
o2
o2
o2
n-0.9426134639999999
o5
v0
n2.0
o5
v1
n1.5
o44
o0
o2
n-5.78
o5
o0
v0
n-1.3
n2.0
o2
n-47.4
o5
o0
v1
n-1.33
n2.0
o2
o2
o2
n-1.7673886560000005
o5
v0
n3.0
o5
v1
n0.20000000000000018
o44
o16
o5
v0
n2.0
o2
o2
o2
n-0.5561170124999999
v0
o5
v1
n-0.25
o44
o0
o2
n-1.37
o5
o0
v1
n-0.642
n2.0
o2
n-1.61
o5
o0
v0
n-0.87
n2.0
o2
o2
o2
n-0.580517175
o5
v0
n2.0
o5
v1
n-0.5
o44
o16
o5
v0
n2.0
o2
o2
o2
n-0.805213
o5
v0
n3.0
o0
o2
n-342.0
v1
n410.4
o44
o0
o2
n-171.0
o5
o0
v1
n-1.2
n2.0
o2
n-9.34
o5
o0
v0
n-0.79
n2.0
o2
o2
o2
n-0.5316726262799999
o5
v0
n3.0
o5
v1
n0.10999999999999988
o44
o0
o2
n-0.98
o5
o0
v1
n-0.59
n2.0
o2
n-1.24
o5
o0
v0
n-0.855
n2.0
o2
o2
o2
o2
n0.93880932208
o5
v0
n3.0
o5
v1
n1.1099999999999999
o0
v1
n-0.59
o44
o0
o2
n-0.98
o5
o0
v1
n-0.59
n2.0
o2
n-1.24
o5
o0
v0
n-0.855
n2.0
o2
o2
o2
o2
n2.031680819
v0
o5
v1
n0.75
o0
v1
n-0.642
o44
o0
o2
n-1.37
o5
o0
v1
n-0.642
n2.0
o2
n-1.61
o5
o0
v0
n-0.87
n2.0
o2
o2
o2
o2
n1.87252828
v0
o5
v1
n0.33000000000000007
o0
o2
n-2.42
v1
n2.28206
o44
o0
o16
o5
o0
v0
n-0.728
n2.0
o2
n-1.21
o5
o0
v1
n-0.943
n2.0
o2
o2
o2
o2
n0.014914769999999999
o5
v0
n2.0
o5
v1
n0.5
o0
o2
n-94.8
v1
n126.084
o44
o0
o2
n-5.78
o5
o0
v0
n-1.3
n2.0
o2
n-47.4
o5
o0
v1
n-1.33
n2.0
o2
o2
o2
o2
n-0.478984348
o5
v0
n3.0
o5
v1
n1.1099999999999999
o0
o2
n-1.96
v1
n1.1563999999999999
o44
o0
o2
n-0.98
o5
o0
v1
n-0.59
n2.0
o2
n-1.24
o5
o0
v0
n-0.855
n2.0
o2
o2
o2
o2
n-1.4139201959999999
o5
v0
n2.0
o5
v1
n0.5
o0
v1
n-1.33
o44
o0
o2
n-5.78
o5
o0
v0
n-1.3
n2.0
o2
n-47.4
o5
o0
v1
n-1.33
n2.0
o2
o2
o2
o2
n-0.7414893499999999
v0
o5
v1
n0.75
o0
o2
n-2.74
v1
n1.7590800000000002
o44
o0
o2
n-1.37
o5
o0
v1
n-0.642
n2.0
o2
n-1.61
o5
o0
v0
n-0.87
n2.0
o2
o2
o2
o2
n-4.5315184376
v0
o5
v1
n0.33000000000000007
o0
v1
n-0.943
o44
o0
o16
o5
o0
v0
n-0.728
n2.0
o2
n-1.21
o5
o0
v1
n-0.943
n2.0
o2
o2
o2
o2
o2
n0.2710028244
v0
v1
o0
v1
n-0.64
o0
o2
n-30.8
v1
n19.712
o44
o0
o2
n-3.08
o5
o0
v0
n-0.71
n2.0
o2
n-15.4
o5
o0
v1
n-0.64
n2.0
o2
o2
o2
o2
o2
n275.382846
v1
o5
v0
n3.0
o0
v1
n-1.2
o0
o2
n-342.0
v1
n410.4
o44
o0
o2
n-171.0
o5
o0
v1
n-1.2
n2.0
o2
n-9.34
o5
o0
v0
n-0.79
n2.0
o2
o2
o2
o2
o2
n1.160960468
v0
o5
v1
n1.75
o0
v1
n-0.642
o0
o2
n-2.74
v1
n1.7590800000000002
o44
o0
o2
n-1.37
o5
o0
v1
n-0.642
n2.0
o2
n-1.61
o5
o0
v0
n-0.87
n2.0
o2
o2
o2
o2
o2
n0.444933328
o5
v0
n3.0
o5
v1
n2.11
o0
v1
n-0.59
o0
o2
n-1.96
v1
n1.1563999999999999
o44
o0
o2
n-0.98
o5
o0
v1
n-0.59
n2.0
o2
n-1.24
o5
o0
v0
n-0.855
n2.0
o2
o2
o2
o2
o2
n-3.4071567199999997
v0
o5
v1
n1.33
o0
v1
n-0.943
o0
o2
n-2.42
v1
n2.28206
o44
o0
o16
o5
o0
v0
n-0.728
n2.0
o2
n-1.21
o5
o0
v1
n-0.943
n2.0
o2
o2
o2
o2
o2
n-0.9426134639999999
o5
v0
n2.0
o5
v1
n1.5
o0
v1
n-1.33
o0
o2
n-94.8
v1
n126.084
o44
o0
o2
n-5.78
o5
o0
v0
n-1.3
n2.0
o2
n-47.4
o5
o0
v1
n-1.33
n2.0
O10 0
o54
39
o2
n0.15931188
o5
v0
n3.0
o2
n0.404126621
o5
v1
n-0.777
o2
n-0.008798793
o44
o0
o2
n-3.08
o5
o0
v0
n-0.71
n2.0
o2
n-15.4
o5
o0
v1
n-0.64
n2.0
o2
n-1.91582156
o5
v1
n-0.245
o2
o2
n1.87252828
o5
v1
n0.33000000000000007
o44
o0
o16
o5
o0
v0
n-0.728
n2.0
o2
n-1.21
o5
o0
v1
n-0.943
n2.0
o2
o2
n0.221368092
o5
v1
n-0.56
o5
v0
n2.0
o2
o2
n-2.4156389999999996
o5
v0
n2.0
o44
o0
o2
n-171.0
o5
o0
v1
n-1.2
n2.0
o2
n-9.34
o5
o0
v0
n-0.79
n2.0
o2
o2
n-2.647602
v1
o44
o16
o5
v0
n2.0
o2
o2
n-0.7414893499999999
o5
v1
n0.75
o44
o0
o2
n-1.37
o5
o0
v1
n-0.642
n2.0
o2
n-1.61
o5
o0
v0
n-0.87
n2.0
o2
o2
n-1.322646992
v0
o5
v1
n0.24
o2
o2
o2
n0.2710028244
v1
o0
v1
n-0.64
o44
o0
o2
n-3.08
o5
o0
v0
n-0.71
n2.0
o2
n-15.4
o5
o0
v1
n-0.64
n2.0
o2
o2
o2
n0.016594614
o5
v1
n-0.09999999999999998
o5
v0
n7.0
o44
o2
n-1.0
v0
o2
o2
o2
n2.3220687
o5
v1
n0.5
o5
v0
n3.0
o44
o16
o5
v0
n2.0
o2
o2
o2
n5.295204
v1
o5
v0
n2.0
o44
o16
o5
v0
n2.0
o2
o2
o2
n1.9374523199999998
v0
o5
v1
n0.19999999999999996
o44
o2
n-1.0
v0
o2
o2
o2
n1.160960468
o5
v1
n1.75
o0
v1
n-0.642
o44
o0
o2
n-1.37
o5
o0
v1
n-0.642
n2.0
o2
n-1.61
o5
o0
v0
n-0.87
n2.0
o2
o2
o2
n2.9456477600000004
o5
v1
n1.2000000000000002
o5
v0
n4.0
o44
o16
o5
v0
n2.0
o2
o2
o2
n0.029829539999999998
v0
o5
v1
n0.5
o44
o0
o2
n-5.78
o5
o0
v0
n-1.3
n2.0
o2
n-47.4
o5
o0
v1
n-1.33
n2.0
o2
o2
o2
n-0.008798793
v0
o0
o2
n-6.16
v0
n4.3736
o44
o0
o2
n-3.08
o5
o0
v0
n-0.71
n2.0
o2
n-15.4
o5
o0
v1
n-0.64
n2.0
o2
o2
o2
n-4.41847164
o5
v1
n1.2000000000000002
o5
v0
n2.0
o44
o16
o5
v0
n2.0
o2
o2
o2
n-3.4071567199999997
o5
v1
n1.33
o0
v1
n-0.943
o44
o0
o16
o5
o0
v0
n-0.728
n2.0
o2
n-1.21
o5
o0
v1
n-0.943
n2.0
o2
o2
o2
n-2.3220687
v0
o5
v1
n0.5
o44
o16
o5
v0
n2.0
o2
o2
o2
n-0.805213
o5
v0
n3.0
o0
o2
n-18.68
v0
n14.757200000000001
o44
o0
o2
n-171.0
o5
o0
v1
n-1.2
n2.0
o2
n-9.34
o5
o0
v0
n-0.79
n2.0
o2
o2
o2
n-0.9687261599999999
o5
v1
n0.19999999999999996
o5
v0
n2.0
o44
o2
n-1.0
v0
o2
o2
o2
n-1.4369530439999998
o5
v1
n1.1099999999999999
o5
v0
n2.0
o44
o0
o2
n-0.98
o5
o0
v1
n-0.59
n2.0
o2
n-1.24
o5
o0
v0
n-0.855
n2.0
o2
o2
o2
n-0.11616229800000001
o5
v1
n-0.09999999999999998
o5
v0
n6.0
o44
o2
n-1.0
v0
o2
o2
o2
o2
n1.334799984
o5
v1
n2.11
o5
v0
n2.0
o0
v1
n-0.59
o44
o0
o2
n-0.98
o5
o0
v1
n-0.59
n2.0
o2
n-1.24
o5
o0
v0
n-0.855
n2.0
o2
o2
o2
o2
n826.1485379999999
v1
o5
v0
n2.0
o0
v1
n-1.2
o44
o0
o2
n-171.0
o5
o0
v1
n-1.2
n2.0
o2
n-9.34
o5
o0
v0
n-0.79
n2.0
o2
o2
o2
o2
n1.87252828
v0
o5
v1
n0.33000000000000007
o0
o2
n-2.0
v0
n1.456
o44
o0
o16
o5
o0
v0
n-0.728
n2.0
o2
n-1.21
o5
o0
v1
n-0.943
n2.0
o2
o2
o2
o2
n0.014914769999999999
o5
v1
n0.5
o5
v0
n2.0
o0
o2
n-11.56
v0
n15.028
o44
o0
o2
n-5.78
o5
o0
v0
n-1.3
n2.0
o2
n-47.4
o5
o0
v1
n-1.33
n2.0
o2
o2
o2
o2
n-0.478984348
o5
v1
n1.1099999999999999
o5
v0
n3.0
o0
o2
n-2.48
v0
n2.1204
o44
o0
o2
n-0.98
o5
o0
v1
n-0.59
n2.0
o2
n-1.24
o5
o0
v0
n-0.855
n2.0
o2
o2
o2
o2
n-1.8852269279999998
v0
o5
v1
n1.5
o0
v1
n-1.33
o44
o0
o2
n-5.78
o5
o0
v0
n-1.3
n2.0
o2
n-47.4
o5
o0
v1
n-1.33
n2.0
o2
o2
o2
o2
n-0.7414893499999999
v0
o5
v1
n0.75
o0
o2
n-3.22
v0
n2.8014
o44
o0
o2
n-1.37
o5
o0
v1
n-0.642
n2.0
o2
n-1.61
o5
o0
v0
n-0.87
n2.0
o2
o2
o2
o2
o2
n0.2710028244
v1
v0
o0
v1
n-0.64
o0
o2
n-6.16
v0
n4.3736
o44
o0
o2
n-3.08
o5
o0
v0
n-0.71
n2.0
o2
n-15.4
o5
o0
v1
n-0.64
n2.0
o2
o2
o2
o2
o2
n275.382846
v1
o5
v0
n3.0
o0
v1
n-1.2
o0
o2
n-18.68
v0
n14.757200000000001
o44
o0
o2
n-171.0
o5
o0
v1
n-1.2
n2.0
o2
n-9.34
o5
o0
v0
n-0.79
n2.0
o2
o2
o2
o2
o2
n1.160960468
v0
o5
v1
n1.75
o0
v1
n-0.642
o0
o2
n-3.22
v0
n2.8014
o44
o0
o2
n-1.37
o5
o0
v1
n-0.642
n2.0
o2
n-1.61
o5
o0
v0
n-0.87
n2.0
o2
o2
o2
o2
o2
n0.444933328
o5
v1
n2.11
o5
v0
n3.0
o0
v1
n-0.59
o0
o2
n-2.48
v0
n2.1204
o44
o0
o2
n-0.98
o5
o0
v1
n-0.59
n2.0
o2
n-1.24
o5
o0
v0
n-0.855
n2.0
o2
o2
o2
o2
o2
n-3.4071567199999997
v0
o5
v1
n1.33
o0
v1
n-0.943
o0
o2
n-2.0
v0
n1.456
o44
o0
o16
o5
o0
v0
n-0.728
n2.0
o2
n-1.21
o5
o0
v1
n-0.943
n2.0
o2
o2
o2
o2
o2
n-0.9426134639999999
o5
v1
n1.5
o5
v0
n2.0
o0
v1
n-1.33
o0
o2
n-11.56
v0
n15.028
o44
o0
o2
n-5.78
o5
o0
v0
n-1.3
n2.0
o2
n-47.4
o5
o0
v1
n-1.33
n2.0
O11 0
o0
o54
4
o2
n1.1913
o5
o0
o16
o3
n1
v1
n1
n0.27
o2
n2.2456
o5
o0
o16
o3
n1
v1
n1
n0.7
o2
n-1.7747
o5
o0
o16
o3
n1
v1
n1
n1.25
o2
n1.3096
o5
o0
o16
o3
n1
v1
n1
n1.9
n1.0
O12 0
o44
o54
5
o2
n-1.0308
o5
o0
o16
o3
n1
v1
n1
n0.24
o2
n-5.0422
o5
o0
o16
o3
n1
v1
n1
n0.72
o2
n-11.5
o5
o0
o16
o3
n1
v1
n1
n2.1
o2
n-37.499
o5
o0
o16
o3
n1
v1
n1
n4.8
o2
n-77.945
o5
o0
o16
o3
n1
v1
n1
n9.5
O13 0
n0.0
x2
0 1.00000001
1 1.0
r
b
3
3
k1
0
G0 2
0 0
1 8.79132625741231
G1 1
0 0
G2 1
0 0
G3 1
1 0
G4 1
1 0
G5 2
0 0
1 0
G6 2
0 0
1 0
G7 2
0 0
1 0
G8 2
0 0
1 0
G9 2
0 0
1 0
G10 2
0 0
1 0
G11 1
1 0
G12 1
1 0
